NAME : X-n670-k130
COMMENT : "Generated by Uchoa, Pecin, Pessoa, Poggi, Subramanian, and Vidal (2013)"
TYPE : CVRP
DIMENSION : 670
EDGE_WEIGHT_TYPE : EUC_2D
CAPACITY : 129
NODE_COORD_SECTION
1 612 199
2 864 279
3 746 395
4 738 519
5 684 851
6 806 263
7 867 314
8 637 357
9 64 531
10 803 657
11 22 330
12 634 731
13 351 945
14 240 812
15 664 595
16 775 1000
17 971 313
18 953 717
19 317 25
20 812 410
21 677 874
22 731 504
23 89 803
24 697 604
25 53 379
26 817 947
27 164 875
28 86 108
29 9 596
30 406 956
31 304 456
32 843 846
33 285 809
34 148 84
35 349 524
36 527 626
37 947 317
38 646 27
39 718 325
40 906 651
41 889 936
42 953 118
43 908 868
44 447 13
45 335 495
46 77 834
47 992 428
48 826 196
49 337 341
50 482 288
51 123 49
52 415 572
53 274 837
54 581 738
55 33 36
56 795 906
57 353 858
58 242 80
59 532 464
60 246 853
61 109 299
62 285 353
63 5 669
64 255 457
65 909 568
66 986 234
67 920 756
68 7 655
69 441 88
70 569 543
71 317 94
72 897 775
73 226 802
74 716 738
75 320 820
76 15 31
77 114 664
78 60 419
79 629 333
80 662 34
81 780 143
82 689 829
83 19 801
84 836 281
85 227 730
86 640 347
87 850 655
88 742 663
89 290 424
90 407 997
91 553 92
92 286 957
93 129 245
94 435 940
95 141 578
96 578 334
97 732 726
98 624 979
99 705 340
100 431 858
101 416 416
102 826 58
103 913 873
104 862 977
105 326 380
106 344 764
107 512 437
108 589 34
109 937 700
110 439 819
111 826 559
112 535 764
113 547 971
114 822 590
115 257 530
116 324 789
117 788 804
118 156 583
119 788 907
120 788 123
121 115 327
122 561 946
123 477 11
124 455 671
125 317 685
126 105 965
127 962 433
128 62 729
129 5 534
130 314 568
131 957 527
132 47 482
133 123 549
134 665 826
135 756 911
136 50 508
137 439 921
138 86 447
139 731 971
140 417 273
141 52 855
142 463 281
143 832 357
144 693 636
145 890 71
146 131 820
147 85 486
148 130 344
149 204 308
150 381 694
151 98 41
152 182 538
153 78 818
154 954 175
155 555 470
156 4 246
157 925 867
158 546 678
159 717 485
160 958 891
161 980 240
162 306 252
163 925 566
164 105 781
165 812 738
166 337 94
167 96 457
168 713 619
169 815 673
170 193 37
171 229 668
172 750 998
173 713 377
174 383 57
175 898 976
176 388 899
177 57 697
178 869 771
179 755 921
180 504 197
181 727 494
182 564 932
183 30 311
184 175 156
185 429 144
186 836 939
187 35 719
188 183 932
189 200 42
190 6 329
191 656 984
192 515 67
193 904 97
194 850 281
195 858 708
196 856 1
197 732 232
198 92 113
199 183 762
200 99 558
201 703 888
202 914 786
203 255 781
204 838 456
205 167 519
206 448 397
207 273 665
208 869 804
209 300 97
210 282 690
211 514 82
212 694 598
213 606 610
214 955 545
215 835 965
216 16 229
217 418 558
218 458 484
219 169 8
220 242 978
221 395 462
222 739 169
223 29 177
224 983 512
225 28 353
226 195 905
227 6 201
228 549 395
229 132 282
230 180 133
231 267 75
232 459 577
233 354 814
234 499 941
235 59 558
236 931 901
237 666 528
238 909 551
239 208 677
240 386 600
241 869 521
242 622 830
243 615 221
244 953 797
245 92 906
246 803 785
247 762 251
248 957 6
249 294 309
250 68 61
251 207 587
252 431 633
253 760 373
254 991 448
255 88 318
256 612 473
257 603 258
258 593 372
259 621 298
260 434 211
261 265 137
262 852 404
263 599 648
264 41 925
265 17 702
266 198 753
267 893 251
268 278 581
269 458 655
270 15 767
271 953 259
272 189 538
273 11 220
274 139 439
275 306 589
276 528 43
277 434 633
278 359 900
279 60 422
280 245 738
281 307 647
282 919 921
283 398 706
284 0 149
285 542 28
286 13 415
287 81 655
288 652 200
289 878 63
290 292 936
291 952 248
292 763 701
293 380 49
294 356 176
295 427 729
296 98 852
297 945 802
298 262 472
299 3 108
300 130 746
301 794 150
302 16 297
303 757 663
304 529 867
305 981 443
306 82 768
307 839 433
308 670 588
309 883 41
310 874 141
311 981 726
312 133 673
313 709 822
314 258 312
315 993 615
316 199 777
317 995 677
318 56 320
319 259 438
320 353 945
321 102 17
322 543 844
323 248 300
324 783 112
325 726 266
326 944 700
327 2 569
328 880 608
329 383 363
330 940 348
331 644 381
332 738 647
333 925 264
334 164 391
335 871 137
336 655 838
337 24 441
338 703 67
339 462 4
340 630 680
341 688 380
342 597 758
343 774 414
344 869 62
345 748 82
346 337 487
347 239 564
348 277 764
349 365 569
350 370 415
351 872 918
352 966 955
353 527 371
354 595 345
355 761 704
356 745 698
357 552 38
358 864 223
359 575 418
360 634 443
361 585 637
362 482 633
363 61 319
364 350 533
365 98 246
366 707 298
367 544 935
368 816 701
369 393 463
370 250 586
371 426 554
372 658 570
373 99 899
374 778 1
375 689 736
376 704 155
377 675 682
378 405 693
379 390 804
380 486 361
381 905 954
382 204 948
383 168 343
384 739 482
385 403 374
386 700 693
387 739 711
388 900 705
389 111 617
390 367 999
391 395 526
392 611 607
393 800 873
394 138 574
395 508 172
396 217 654
397 566 346
398 895 268
399 26 302
400 264 705
401 337 760
402 975 574
403 981 331
404 2 508
405 368 849
406 666 120
407 976 942
408 888 203
409 740 867
410 712 181
411 695 582
412 74 819
413 864 81
414 810 168
415 400 966
416 924 776
417 979 276
418 105 134
419 433 571
420 497 386
421 651 251
422 704 274
423 712 142
424 62 350
425 276 320
426 158 422
427 232 190
428 589 261
429 578 815
430 979 553
431 569 491
432 247 101
433 106 580
434 125 281
435 376 586
436 915 744
437 742 479
438 513 366
439 885 281
440 669 455
441 191 889
442 509 202
443 402 151
444 292 387
445 491 202
446 434 328
447 816 33
448 769 86
449 504 328
450 63 922
451 92 533
452 787 990
453 422 190
454 123 301
455 775 517
456 238 923
457 266 229
458 794 427
459 485 623
460 716 603
461 384 901
462 208 400
463 421 751
464 17 138
465 952 175
466 953 960
467 863 568
468 645 528
469 473 40
470 567 988
471 665 5
472 300 160
473 281 999
474 44 4
475 763 761
476 390 315
477 37 567
478 330 676
479 667 799
480 526 664
481 230 780
482 824 302
483 969 848
484 19 766
485 675 686
486 876 329
487 836 902
488 386 574
489 18 851
490 292 841
491 516 721
492 848 931
493 233 856
494 833 61
495 833 332
496 824 67
497 121 796
498 707 857
499 690 527
500 442 109
501 811 783
502 79 234
503 568 362
504 29 570
505 259 444
506 570 840
507 26 660
508 618 855
509 753 424
510 747 462
511 202 510
512 444 757
513 406 880
514 635 529
515 310 765
516 444 966
517 660 987
518 211 608
519 143 544
520 759 555
521 784 434
522 906 911
523 575 734
524 234 493
525 377 928
526 102 786
527 54 485
528 917 138
529 866 690
530 638 224
531 108 715
532 556 739
533 4 955
534 300 357
535 844 603
536 107 934
537 374 477
538 334 958
539 444 99
540 226 253
541 888 24
542 934 938
543 672 417
544 773 618
545 282 880
546 748 850
547 367 534
548 310 838
549 625 343
550 379 388
551 949 696
552 605 114
553 812 229
554 884 888
555 914 913
556 125 541
557 65 369
558 268 824
559 335 460
560 545 601
561 436 107
562 996 311
563 367 379
564 238 666
565 304 808
566 479 607
567 741 978
568 784 502
569 878 347
570 587 607
571 264 329
572 464 763
573 691 618
574 140 350
575 326 770
576 763 494
577 108 29
578 413 515
579 390 406
580 870 632
581 823 5
582 631 919
583 501 606
584 174 503
585 352 487
586 476 22
587 780 505
588 772 324
589 547 428
590 580 425
591 926 505
592 960 705
593 81 301
594 30 367
595 717 772
596 737 141
597 962 592
598 866 231
599 510 737
600 309 524
601 18 304
602 580 38
603 739 598
604 581 633
605 413 455
606 618 953
607 415 820
608 665 638
609 135 578
610 880 775
611 629 631
612 371 600
613 501 223
614 215 451
615 49 525
616 718 972
617 656 456
618 932 564
619 424 764
620 423 93
621 72 355
622 286 840
623 75 872
624 410 700
625 51 518
626 992 644
627 407 141
628 303 414
629 224 557
630 711 483
631 401 128
632 933 250
633 46 598
634 562 503
635 115 157
636 829 113
637 304 785
638 617 993
639 188 816
640 727 298
641 612 777
642 398 880
643 334 458
644 65 991
645 912 247
646 383 233
647 846 703
648 485 768
649 972 386
650 502 763
651 96 937
652 329 97
653 892 400
654 639 318
655 34 810
656 147 837
657 598 9
658 129 390
659 689 739
660 187 735
661 344 952
662 263 610
663 665 405
664 906 931
665 212 478
666 784 249
667 647 257
668 456 454
669 615 858
670 385 722
PICKUP_AND_DELIVERY_SECTION
1 0 0 1000000000 0 0 0
2 0 0 1000000000 0 0 50
3 0 0 1000000000 0 86 0
4 0 0 1000000000 0 0 94
5 0 0 1000000000 0 54 0
6 0 0 1000000000 0 0 57
7 0 0 1000000000 0 52 0
8 0 0 1000000000 0 0 66
9 0 0 1000000000 0 76 0
10 0 0 1000000000 0 0 69
11 0 0 1000000000 0 57 0
12 0 0 1000000000 0 0 77
13 0 0 1000000000 0 94 0
14 0 0 1000000000 0 0 64
15 0 0 1000000000 0 79 0
16 0 0 1000000000 0 0 91
17 0 0 1000000000 0 55 0
18 0 0 1000000000 0 0 79
19 0 0 1000000000 0 68 0
20 0 0 1000000000 0 0 51
21 0 0 1000000000 0 93 0
22 0 0 1000000000 0 0 91
23 0 0 1000000000 0 68 0
24 0 0 1000000000 0 0 51
25 0 0 1000000000 0 93 0
26 0 0 1000000000 0 0 91
27 0 0 1000000000 0 91 0
28 0 0 1000000000 0 0 59
29 0 0 1000000000 0 76 0
30 0 0 1000000000 0 0 57
31 0 0 1000000000 0 96 0
32 0 0 1000000000 0 0 97
33 0 0 1000000000 0 69 0
34 0 0 1000000000 0 0 83
35 0 0 1000000000 0 58 0
36 0 0 1000000000 0 0 56
37 0 0 1000000000 0 81 0
38 0 0 1000000000 0 0 96
39 0 0 1000000000 0 52 0
40 0 0 1000000000 0 0 86
41 0 0 1000000000 0 78 0
42 0 0 1000000000 0 0 92
43 0 0 1000000000 0 67 0
44 0 0 1000000000 0 0 56
45 0 0 1000000000 0 56 0
46 0 0 1000000000 0 0 51
47 0 0 1000000000 0 91 0
48 0 0 1000000000 0 0 93
49 0 0 1000000000 0 73 0
50 0 0 1000000000 0 0 70
51 0 0 1000000000 0 77 0
52 0 0 1000000000 0 0 91
53 0 0 1000000000 0 64 0
54 0 0 1000000000 0 0 81
55 0 0 1000000000 0 76 0
56 0 0 1000000000 0 0 51
57 0 0 1000000000 0 75 0
58 0 0 1000000000 0 0 81
59 0 0 1000000000 0 57 0
60 0 0 1000000000 0 0 50
61 0 0 1000000000 0 80 0
62 0 0 1000000000 0 0 53
63 0 0 1000000000 0 86 0
64 0 0 1000000000 0 0 61
65 0 0 1000000000 0 62 0
66 0 0 1000000000 0 0 100
67 0 0 1000000000 0 94 0
68 0 0 1000000000 0 0 89
69 0 0 1000000000 0 88 0
70 0 0 1000000000 0 0 52
71 0 0 1000000000 0 60 0
72 0 0 1000000000 0 0 83
73 0 0 1000000000 0 79 0
74 0 0 1000000000 0 0 64
75 0 0 1000000000 0 82 0
76 0 0 1000000000 0 0 72
77 0 0 1000000000 0 90 0
78 0 0 1000000000 0 0 72
79 0 0 1000000000 0 51 0
80 0 0 1000000000 0 0 88
81 0 0 1000000000 0 82 0
82 0 0 1000000000 0 0 78
83 0 0 1000000000 0 80 0
84 0 0 1000000000 0 0 82
85 0 0 1000000000 0 98 0
86 0 0 1000000000 0 0 70
87 0 0 1000000000 0 74 0
88 0 0 1000000000 0 0 61
89 0 0 1000000000 0 88 0
90 0 0 1000000000 0 0 51
91 0 0 1000000000 0 60 0
92 0 0 1000000000 0 0 57
93 0 0 1000000000 0 84 0
94 0 0 1000000000 0 0 65
95 0 0 1000000000 0 57 0
96 0 0 1000000000 0 0 51
97 0 0 1000000000 0 77 0
98 0 0 1000000000 0 0 63
99 0 0 1000000000 0 55 0
100 0 0 1000000000 0 0 53
101 0 0 1000000000 0 88 0
102 0 0 1000000000 0 0 90
103 0 0 1000000000 0 89 0
104 0 0 1000000000 0 0 70
105 0 0 1000000000 0 94 0
106 0 0 1000000000 0 0 50
107 0 0 1000000000 0 62 0
108 0 0 1000000000 0 0 87
109 0 0 1000000000 0 56 0
110 0 0 1000000000 0 0 89
111 0 0 1000000000 0 73 0
112 0 0 1000000000 0 0 88
113 0 0 1000000000 0 94 0
114 0 0 1000000000 0 0 63
115 0 0 1000000000 0 90 0
116 0 0 1000000000 0 0 86
117 0 0 1000000000 0 53 0
118 0 0 1000000000 0 0 70
119 0 0 1000000000 0 75 0
120 0 0 1000000000 0 0 92
121 0 0 1000000000 0 94 0
122 0 0 1000000000 0 0 67
123 0 0 1000000000 0 59 0
124 0 0 1000000000 0 0 94
125 0 0 1000000000 0 52 0
126 0 0 1000000000 0 0 52
127 0 0 1000000000 0 71 0
128 0 0 1000000000 0 0 79
129 0 0 1000000000 0 76 0
130 0 0 1000000000 0 0 87
131 0 0 1000000000 0 54 0
132 0 0 1000000000 0 0 63
133 0 0 1000000000 0 92 0
134 0 0 1000000000 0 0 69
135 0 0 1000000000 0 51 0
136 0 0 1000000000 0 0 60
137 0 0 1000000000 0 83 0
138 0 0 1000000000 0 0 61
139 0 0 1000000000 0 72 0
140 0 0 1000000000 0 0 61
141 0 0 1000000000 0 68 0
142 0 0 1000000000 0 0 64
143 0 0 1000000000 0 70 0
144 0 0 1000000000 0 0 57
145 0 0 1000000000 0 71 0
146 0 0 1000000000 0 0 91
147 0 0 1000000000 0 70 0
148 0 0 1000000000 0 0 67
149 0 0 1000000000 0 96 0
150 0 0 1000000000 0 0 95
151 0 0 1000000000 0 91 0
152 0 0 1000000000 0 0 57
153 0 0 1000000000 0 56 0
154 0 0 1000000000 0 0 90
155 0 0 1000000000 0 70 0
156 0 0 1000000000 0 0 72
157 0 0 1000000000 0 99 0
158 0 0 1000000000 0 0 80
159 0 0 1000000000 0 91 0
160 0 0 1000000000 0 0 56
161 0 0 1000000000 0 72 0
162 0 0 1000000000 0 0 83
163 0 0 1000000000 0 55 0
164 0 0 1000000000 0 0 80
165 0 0 1000000000 0 62 0
166 0 0 1000000000 0 0 53
167 0 0 1000000000 0 60 0
168 0 0 1000000000 0 0 65
169 0 0 1000000000 0 60 0
170 0 0 1000000000 0 0 60
171 0 0 1000000000 0 73 0
172 0 0 1000000000 0 0 58
173 0 0 1000000000 0 88 0
174 0 0 1000000000 0 0 59
175 0 0 1000000000 0 53 0
176 0 0 1000000000 0 0 57
177 0 0 1000000000 0 76 0
178 0 0 1000000000 0 0 72
179 0 0 1000000000 0 82 0
180 0 0 1000000000 0 0 86
181 0 0 1000000000 0 87 0
182 0 0 1000000000 0 0 55
183 0 0 1000000000 0 83 0
184 0 0 1000000000 0 0 68
185 0 0 1000000000 0 89 0
186 0 0 1000000000 0 0 81
187 0 0 1000000000 0 52 0
188 0 0 1000000000 0 0 54
189 0 0 1000000000 0 83 0
190 0 0 1000000000 0 0 2
191 0 0 1000000000 0 6 0
192 0 0 1000000000 0 0 10
193 0 0 1000000000 0 6 0
194 0 0 1000000000 0 0 3
195 0 0 1000000000 0 4 0
196 0 0 1000000000 0 0 4
197 0 0 1000000000 0 3 0
198 0 0 1000000000 0 0 2
199 0 0 1000000000 0 6 0
200 0 0 1000000000 0 0 10
201 0 0 1000000000 0 8 0
202 0 0 1000000000 0 0 2
203 0 0 1000000000 0 6 0
204 0 0 1000000000 0 0 9
205 0 0 1000000000 0 6 0
206 0 0 1000000000 0 0 8
207 0 0 1000000000 0 8 0
208 0 0 1000000000 0 0 1
209 0 0 1000000000 0 5 0
210 0 0 1000000000 0 0 4
211 0 0 1000000000 0 8 0
212 0 0 1000000000 0 0 2
213 0 0 1000000000 0 8 0
214 0 0 1000000000 0 0 3
215 0 0 1000000000 0 4 0
216 0 0 1000000000 0 0 8
217 0 0 1000000000 0 1 0
218 0 0 1000000000 0 0 1
219 0 0 1000000000 0 5 0
220 0 0 1000000000 0 0 1
221 0 0 1000000000 0 4 0
222 0 0 1000000000 0 0 1
223 0 0 1000000000 0 10 0
224 0 0 1000000000 0 0 2
225 0 0 1000000000 0 2 0
226 0 0 1000000000 0 0 9
227 0 0 1000000000 0 2 0
228 0 0 1000000000 0 0 8
229 0 0 1000000000 0 2 0
230 0 0 1000000000 0 0 8
231 0 0 1000000000 0 4 0
232 0 0 1000000000 0 0 5
233 0 0 1000000000 0 6 0
234 0 0 1000000000 0 0 5
235 0 0 1000000000 0 10 0
236 0 0 1000000000 0 0 5
237 0 0 1000000000 0 1 0
238 0 0 1000000000 0 0 3
239 0 0 1000000000 0 7 0
240 0 0 1000000000 0 0 1
241 0 0 1000000000 0 5 0
242 0 0 1000000000 0 0 9
243 0 0 1000000000 0 1 0
244 0 0 1000000000 0 0 9
245 0 0 1000000000 0 3 0
246 0 0 1000000000 0 0 8
247 0 0 1000000000 0 1 0
248 0 0 1000000000 0 0 7
249 0 0 1000000000 0 2 0
250 0 0 1000000000 0 0 5
251 0 0 1000000000 0 8 0
252 0 0 1000000000 0 0 7
253 0 0 1000000000 0 4 0
254 0 0 1000000000 0 0 5
255 0 0 1000000000 0 2 0
256 0 0 1000000000 0 0 2
257 0 0 1000000000 0 4 0
258 0 0 1000000000 0 0 7
259 0 0 1000000000 0 8 0
260 0 0 1000000000 0 0 1
261 0 0 1000000000 0 1 0
262 0 0 1000000000 0 0 3
263 0 0 1000000000 0 8 0
264 0 0 1000000000 0 0 10
265 0 0 1000000000 0 9 0
266 0 0 1000000000 0 0 3
267 0 0 1000000000 0 1 0
268 0 0 1000000000 0 0 4
269 0 0 1000000000 0 4 0
270 0 0 1000000000 0 0 10
271 0 0 1000000000 0 10 0
272 0 0 1000000000 0 0 4
273 0 0 1000000000 0 8 0
274 0 0 1000000000 0 0 3
275 0 0 1000000000 0 7 0
276 0 0 1000000000 0 0 1
277 0 0 1000000000 0 5 0
278 0 0 1000000000 0 0 7
279 0 0 1000000000 0 1 0
280 0 0 1000000000 0 0 2
281 0 0 1000000000 0 5 0
282 0 0 1000000000 0 0 10
283 0 0 1000000000 0 3 0
284 0 0 1000000000 0 0 1
285 0 0 1000000000 0 10 0
286 0 0 1000000000 0 0 8
287 0 0 1000000000 0 5 0
288 0 0 1000000000 0 0 3
289 0 0 1000000000 0 6 0
290 0 0 1000000000 0 0 9
291 0 0 1000000000 0 4 0
292 0 0 1000000000 0 0 5
293 0 0 1000000000 0 4 0
294 0 0 1000000000 0 0 9
295 0 0 1000000000 0 2 0
296 0 0 1000000000 0 0 8
297 0 0 1000000000 0 9 0
298 0 0 1000000000 0 0 8
299 0 0 1000000000 0 9 0
300 0 0 1000000000 0 0 7
301 0 0 1000000000 0 9 0
302 0 0 1000000000 0 0 10
303 0 0 1000000000 0 1 0
304 0 0 1000000000 0 0 4
305 0 0 1000000000 0 6 0
306 0 0 1000000000 0 0 7
307 0 0 1000000000 0 10 0
308 0 0 1000000000 0 0 1
309 0 0 1000000000 0 7 0
310 0 0 1000000000 0 0 3
311 0 0 1000000000 0 6 0
312 0 0 1000000000 0 0 6
313 0 0 1000000000 0 1 0
314 0 0 1000000000 0 0 8
315 0 0 1000000000 0 3 0
316 0 0 1000000000 0 0 6
317 0 0 1000000000 0 3 0
318 0 0 1000000000 0 0 10
319 0 0 1000000000 0 2 0
320 0 0 1000000000 0 0 5
321 0 0 1000000000 0 9 0
322 0 0 1000000000 0 0 8
323 0 0 1000000000 0 2 0
324 0 0 1000000000 0 0 4
325 0 0 1000000000 0 3 0
326 0 0 1000000000 0 0 9
327 0 0 1000000000 0 7 0
328 0 0 1000000000 0 0 2
329 0 0 1000000000 0 10 0
330 0 0 1000000000 0 0 3
331 0 0 1000000000 0 8 0
332 0 0 1000000000 0 0 7
333 0 0 1000000000 0 9 0
334 0 0 1000000000 0 0 8
335 0 0 1000000000 0 2 0
336 0 0 1000000000 0 0 2
337 0 0 1000000000 0 3 0
338 0 0 1000000000 0 0 4
339 0 0 1000000000 0 2 0
340 0 0 1000000000 0 0 1
341 0 0 1000000000 0 1 0
342 0 0 1000000000 0 0 9
343 0 0 1000000000 0 10 0
344 0 0 1000000000 0 0 3
345 0 0 1000000000 0 4 0
346 0 0 1000000000 0 0 3
347 0 0 1000000000 0 9 0
348 0 0 1000000000 0 0 5
349 0 0 1000000000 0 6 0
350 0 0 1000000000 0 0 5
351 0 0 1000000000 0 5 0
352 0 0 1000000000 0 0 3
353 0 0 1000000000 0 7 0
354 0 0 1000000000 0 0 6
355 0 0 1000000000 0 6 0
356 0 0 1000000000 0 0 9
357 0 0 1000000000 0 1 0
358 0 0 1000000000 0 0 4
359 0 0 1000000000 0 7 0
360 0 0 1000000000 0 0 4
361 0 0 1000000000 0 3 0
362 0 0 1000000000 0 0 1
363 0 0 1000000000 0 1 0
364 0 0 1000000000 0 0 6
365 0 0 1000000000 0 5 0
366 0 0 1000000000 0 0 4
367 0 0 1000000000 0 6 0
368 0 0 1000000000 0 0 2
369 0 0 1000000000 0 1 0
370 0 0 1000000000 0 0 7
371 0 0 1000000000 0 6 0
372 0 0 1000000000 0 0 4
373 0 0 1000000000 0 10 0
374 0 0 1000000000 0 0 7
375 0 0 1000000000 0 4 0
376 0 0 1000000000 0 0 3
377 0 0 1000000000 0 5 0
378 0 0 1000000000 0 0 7
379 0 0 1000000000 0 6 0
380 0 0 1000000000 0 0 9
381 0 0 1000000000 0 3 0
382 0 0 1000000000 0 0 6
383 0 0 1000000000 0 7 0
384 0 0 1000000000 0 0 8
385 0 0 1000000000 0 2 0
386 0 0 1000000000 0 0 7
387 0 0 1000000000 0 7 0
388 0 0 1000000000 0 0 3
389 0 0 1000000000 0 9 0
390 0 0 1000000000 0 0 8
391 0 0 1000000000 0 3 0
392 0 0 1000000000 0 0 7
393 0 0 1000000000 0 10 0
394 0 0 1000000000 0 0 4
395 0 0 1000000000 0 9 0
396 0 0 1000000000 0 0 8
397 0 0 1000000000 0 10 0
398 0 0 1000000000 0 0 3
399 0 0 1000000000 0 4 0
400 0 0 1000000000 0 0 5
401 0 0 1000000000 0 1 0
402 0 0 1000000000 0 0 8
403 0 0 1000000000 0 3 0
404 0 0 1000000000 0 0 2
405 0 0 1000000000 0 6 0
406 0 0 1000000000 0 0 10
407 0 0 1000000000 0 1 0
408 0 0 1000000000 0 0 1
409 0 0 1000000000 0 8 0
410 0 0 1000000000 0 0 2
411 0 0 1000000000 0 4 0
412 0 0 1000000000 0 0 1
413 0 0 1000000000 0 4 0
414 0 0 1000000000 0 0 5
415 0 0 1000000000 0 10 0
416 0 0 1000000000 0 0 2
417 0 0 1000000000 0 6 0
418 0 0 1000000000 0 0 2
419 0 0 1000000000 0 8 0
420 0 0 1000000000 0 0 8
421 0 0 1000000000 0 1 0
422 0 0 1000000000 0 0 4
423 0 0 1000000000 0 9 0
424 0 0 1000000000 0 0 2
425 0 0 1000000000 0 6 0
426 0 0 1000000000 0 0 4
427 0 0 1000000000 0 5 0
428 0 0 1000000000 0 0 5
429 0 0 1000000000 0 6 0
430 0 0 1000000000 0 0 5
431 0 0 1000000000 0 9 0
432 0 0 1000000000 0 0 5
433 0 0 1000000000 0 7 0
434 0 0 1000000000 0 0 10
435 0 0 1000000000 0 7 0
436 0 0 1000000000 0 0 8
437 0 0 1000000000 0 2 0
438 0 0 1000000000 0 0 10
439 0 0 1000000000 0 3 0
440 0 0 1000000000 0 0 8
441 0 0 1000000000 0 4 0
442 0 0 1000000000 0 0 1
443 0 0 1000000000 0 7 0
444 0 0 1000000000 0 0 5
445 0 0 1000000000 0 4 0
446 0 0 1000000000 0 0 4
447 0 0 1000000000 0 6 0
448 0 0 1000000000 0 0 10
449 0 0 1000000000 0 3 0
450 0 0 1000000000 0 0 4
451 0 0 1000000000 0 2 0
452 0 0 1000000000 0 0 7
453 0 0 1000000000 0 9 0
454 0 0 1000000000 0 0 2
455 0 0 1000000000 0 6 0
456 0 0 1000000000 0 0 3
457 0 0 1000000000 0 1 0
458 0 0 1000000000 0 0 5
459 0 0 1000000000 0 3 0
460 0 0 1000000000 0 0 8
461 0 0 1000000000 0 7 0
462 0 0 1000000000 0 0 4
463 0 0 1000000000 0 5 0
464 0 0 1000000000 0 0 3
465 0 0 1000000000 0 2 0
466 0 0 1000000000 0 0 5
467 0 0 1000000000 0 9 0
468 0 0 1000000000 0 0 4
469 0 0 1000000000 0 10 0
470 0 0 1000000000 0 0 1
471 0 0 1000000000 0 3 0
472 0 0 1000000000 0 0 6
473 0 0 1000000000 0 7 0
474 0 0 1000000000 0 0 7
475 0 0 1000000000 0 7 0
476 0 0 1000000000 0 0 2
477 0 0 1000000000 0 4 0
478 0 0 1000000000 0 0 6
479 0 0 1000000000 0 9 0
480 0 0 1000000000 0 0 2
481 0 0 1000000000 0 3 0
482 0 0 1000000000 0 0 5
483 0 0 1000000000 0 2 0
484 0 0 1000000000 0 0 3
485 0 0 1000000000 0 5 0
486 0 0 1000000000 0 0 7
487 0 0 1000000000 0 8 0
488 0 0 1000000000 0 0 2
489 0 0 1000000000 0 9 0
490 0 0 1000000000 0 0 8
491 0 0 1000000000 0 3 0
492 0 0 1000000000 0 0 2
493 0 0 1000000000 0 4 0
494 0 0 1000000000 0 0 2
495 0 0 1000000000 0 2 0
496 0 0 1000000000 0 0 2
497 0 0 1000000000 0 7 0
498 0 0 1000000000 0 0 6
499 0 0 1000000000 0 3 0
500 0 0 1000000000 0 0 2
501 0 0 1000000000 0 3 0
502 0 0 1000000000 0 0 3
503 0 0 1000000000 0 4 0
504 0 0 1000000000 0 0 9
505 0 0 1000000000 0 8 0
506 0 0 1000000000 0 0 1
507 0 0 1000000000 0 6 0
508 0 0 1000000000 0 0 4
509 0 0 1000000000 0 6 0
510 0 0 1000000000 0 0 3
511 0 0 1000000000 0 10 0
512 0 0 1000000000 0 0 1
513 0 0 1000000000 0 1 0
514 0 0 1000000000 0 0 8
515 0 0 1000000000 0 9 0
516 0 0 1000000000 0 0 8
517 0 0 1000000000 0 2 0
518 0 0 1000000000 0 0 10
519 0 0 1000000000 0 6 0
520 0 0 1000000000 0 0 2
521 0 0 1000000000 0 2 0
522 0 0 1000000000 0 0 6
523 0 0 1000000000 0 10 0
524 0 0 1000000000 0 0 7
525 0 0 1000000000 0 10 0
526 0 0 1000000000 0 0 2
527 0 0 1000000000 0 5 0
528 0 0 1000000000 0 0 6
529 0 0 1000000000 0 5 0
530 0 0 1000000000 0 0 5
531 0 0 1000000000 0 1 0
532 0 0 1000000000 0 0 7
533 0 0 1000000000 0 2 0
534 0 0 1000000000 0 0 10
535 0 0 1000000000 0 8 0
536 0 0 1000000000 0 0 9
537 0 0 1000000000 0 1 0
538 0 0 1000000000 0 0 6
539 0 0 1000000000 0 8 0
540 0 0 1000000000 0 0 5
541 0 0 1000000000 0 4 0
542 0 0 1000000000 0 0 9
543 0 0 1000000000 0 2 0
544 0 0 1000000000 0 0 1
545 0 0 1000000000 0 7 0
546 0 0 1000000000 0 0 6
547 0 0 1000000000 0 6 0
548 0 0 1000000000 0 0 4
549 0 0 1000000000 0 3 0
550 0 0 1000000000 0 0 4
551 0 0 1000000000 0 4 0
552 0 0 1000000000 0 0 5
553 0 0 1000000000 0 3 0
554 0 0 1000000000 0 0 2
555 0 0 1000000000 0 4 0
556 0 0 1000000000 0 0 7
557 0 0 1000000000 0 8 0
558 0 0 1000000000 0 0 6
559 0 0 1000000000 0 5 0
560 0 0 1000000000 0 0 5
561 0 0 1000000000 0 8 0
562 0 0 1000000000 0 0 4
563 0 0 1000000000 0 6 0
564 0 0 1000000000 0 0 8
565 0 0 1000000000 0 2 0
566 0 0 1000000000 0 0 4
567 0 0 1000000000 0 7 0
568 0 0 1000000000 0 0 8
569 0 0 1000000000 0 7 0
570 0 0 1000000000 0 0 6
571 0 0 1000000000 0 4 0
572 0 0 1000000000 0 0 7
573 0 0 1000000000 0 10 0
574 0 0 1000000000 0 0 4
575 0 0 1000000000 0 8 0
576 0 0 1000000000 0 0 3
577 0 0 1000000000 0 6 0
578 0 0 1000000000 0 0 1
579 0 0 1000000000 0 5 0
580 0 0 1000000000 0 0 5
581 0 0 1000000000 0 9 0
582 0 0 1000000000 0 0 2
583 0 0 1000000000 0 3 0
584 0 0 1000000000 0 0 3
585 0 0 1000000000 0 3 0
586 0 0 1000000000 0 0 8
587 0 0 1000000000 0 10 0
588 0 0 1000000000 0 0 4
589 0 0 1000000000 0 10 0
590 0 0 1000000000 0 0 6
591 0 0 1000000000 0 4 0
592 0 0 1000000000 0 0 3
593 0 0 1000000000 0 10 0
594 0 0 1000000000 0 0 7
595 0 0 1000000000 0 9 0
596 0 0 1000000000 0 0 10
597 0 0 1000000000 0 4 0
598 0 0 1000000000 0 0 9
599 0 0 1000000000 0 5 0
600 0 0 1000000000 0 0 8
601 0 0 1000000000 0 10 0
602 0 0 1000000000 0 0 1
603 0 0 1000000000 0 7 0
604 0 0 1000000000 0 0 3
605 0 0 1000000000 0 6 0
606 0 0 1000000000 0 0 3
607 0 0 1000000000 0 9 0
608 0 0 1000000000 0 0 10
609 0 0 1000000000 0 9 0
610 0 0 1000000000 0 0 5
611 0 0 1000000000 0 10 0
612 0 0 1000000000 0 0 2
613 0 0 1000000000 0 4 0
614 0 0 1000000000 0 0 6
615 0 0 1000000000 0 7 0
616 0 0 1000000000 0 0 10
617 0 0 1000000000 0 6 0
618 0 0 1000000000 0 0 7
619 0 0 1000000000 0 9 0
620 0 0 1000000000 0 0 1
621 0 0 1000000000 0 8 0
622 0 0 1000000000 0 0 6
623 0 0 1000000000 0 7 0
624 0 0 1000000000 0 0 2
625 0 0 1000000000 0 3 0
626 0 0 1000000000 0 0 6
627 0 0 1000000000 0 4 0
628 0 0 1000000000 0 0 5
629 0 0 1000000000 0 10 0
630 0 0 1000000000 0 0 5
631 0 0 1000000000 0 3 0
632 0 0 1000000000 0 0 3
633 0 0 1000000000 0 2 0
634 0 0 1000000000 0 0 6
635 0 0 1000000000 0 9 0
636 0 0 1000000000 0 0 4
637 0 0 1000000000 0 5 0
638 0 0 1000000000 0 0 7
639 0 0 1000000000 0 10 0
640 0 0 1000000000 0 0 4
641 0 0 1000000000 0 9 0
642 0 0 1000000000 0 0 1
643 0 0 1000000000 0 3 0
644 0 0 1000000000 0 0 8
645 0 0 1000000000 0 10 0
646 0 0 1000000000 0 0 8
647 0 0 1000000000 0 7 0
648 0 0 1000000000 0 0 7
649 0 0 1000000000 0 4 0
650 0 0 1000000000 0 0 10
651 0 0 1000000000 0 3 0
652 0 0 1000000000 0 0 9
653 0 0 1000000000 0 6 0
654 0 0 1000000000 0 0 7
655 0 0 1000000000 0 4 0
656 0 0 1000000000 0 0 4
657 0 0 1000000000 0 8 0
658 0 0 1000000000 0 0 3
659 0 0 1000000000 0 2 0
660 0 0 1000000000 0 0 5
661 0 0 1000000000 0 4 0
662 0 0 1000000000 0 0 6
663 0 0 1000000000 0 3 0
664 0 0 1000000000 0 0 5
665 0 0 1000000000 0 4 0
666 0 0 1000000000 0 0 2
667 0 0 1000000000 0 4 0
668 0 0 1000000000 0 0 3
669 0 0 1000000000 0 9 0
670 0 0 1000000000 0 0 9
